data;

# define the sets
set EDGES:= x1 x2 x3 x4 x5 x6 x7 x8 x9;
set STOPS:= O s1 s2 s3 F;
set STOP_PASSENGERS:= s1 s2 s3;

# parameters
param p:=  # students on stop in STOPS
    s1  15
    s2   5
    s3  10
;

param a:=  # cost of edge in EDGES
    x1   8
    x2  10
    x3  10
    x4   3
    x5   7
    x6   6
    x7   5
    x8   7
    x9   4
;

param b:=  120;  # cost per bus
param c:=    5;  # cost per km
param d:=   20;  # capacity per bus


end;